
Welcome to IBM(R) ILOG(R) CPLEX(R) Interactive Optimizer 22.1.1.0
  with Simplex, Mixed Integer & Barrier Optimizers
5725-A06 5725-A29 5724-Y48 5724-Y49 5724-Y54 5724-Y55 5655-Y21
Copyright IBM Corp. 1988, 2022.  All Rights Reserved.

Type 'help' for a list of available commands.
Type 'help' followed by a command name for more
information on commands.

CPLEX> Selected objective sense:  MINIMIZE
Selected objective  name:  00000000
Selected RHS        name:  RHS1
Selected bound      name:  BOUND
Problem 'ee.mps' read.
Read time = 0.03 sec. (3.14 ticks)
CPLEX> New value for time limit in seconds: 7200
CPLEX> New value for parallel optimization mode: -1
CPLEX> New value for default parallel thread count: 40
CPLEX> New value for mixed integer optimality gap tolerance: 1e-13
CPLEX> Version identifier: 22.1.1.0 | 2022-11-28 | 9160aff4d
CPXPARAM_Threads                                 40
CPXPARAM_Parallel                                -1
CPXPARAM_TimeLimit                               7200
CPXPARAM_MIP_Tolerances_MIPGap                   1e-13
Found incumbent of value 0.000000 after 0.00 sec. (0.31 ticks)
Tried aggregator 2 times.
MIP Presolve eliminated 179 rows and 2745 columns.
MIP Presolve modified 5862 coefficients.
Aggregator did 713 substitutions.
Reduced MIP has 3624 rows, 7739 columns, and 28645 nonzeros.
Reduced MIP has 7739 binaries, 0 generals, 0 SOSs, and 0 indicators.
Presolve time = 0.07 sec. (68.57 ticks)
Probing time = 0.03 sec. (5.67 ticks)
Tried aggregator 1 time.
Detecting symmetries...
Reduced MIP has 3624 rows, 7739 columns, and 28645 nonzeros.
Reduced MIP has 7739 binaries, 0 generals, 0 SOSs, and 0 indicators.
Presolve time = 0.02 sec. (21.82 ticks)
Probing time = 0.02 sec. (5.48 ticks)
Clique table members: 18552.
MIP emphasis: balance optimality and feasibility.
MIP search method: dynamic search.
Parallel mode: opportunistic, using up to 40 threads.
Root relaxation solution time = 0.12 sec. (114.23 ticks)

        Nodes                                         Cuts/
   Node  Left     Objective  IInf  Best Integer    Best Bound    ItCnt     Gap

*     0+    0                            0.0000  -1.31000e+13              --- 
*     0+    0                      -6.60000e+12  -1.31000e+13            98.48%
      0     0  -1.30900e+13    54  -6.60000e+12  -1.30900e+13     2464   98.33%
*     0+    0                      -1.30900e+13  -1.30900e+13             0.00%
      0     0  -1.30900e+13    99  -1.30900e+13      Cuts: 45     4277    0.00%
*     0+    0                      -1.30900e+13  -1.30900e+13             0.00%
      0     0  -1.30900e+13   151  -1.30900e+13      Cuts: 70     4583    0.00%
      0    36        cutoff        -1.30900e+13  -1.30900e+13    12155    0.00%
Elapsed time = 2.15 sec. (1103.67 ticks, tree = 0.02 MB, solutions = 4)
    793    99        cutoff        -1.30900e+13  -1.30900e+13    27969    0.00%
   2216   333  -1.30900e+13    39  -1.30900e+13  -1.30900e+13    57820    0.00%
   3804   452  -1.30900e+13   131  -1.30900e+13  -1.30900e+13    69484    0.00%
   5193   733  -1.30900e+13    96  -1.30900e+13  -1.30900e+13   102889    0.00%
   6470  1224  -1.30900e+13   103  -1.30900e+13  -1.30900e+13   158212    0.00%
   7594  1233        cutoff        -1.30900e+13  -1.30900e+13   159962    0.00%
   8595  2054        cutoff        -1.30900e+13  -1.30900e+13   278602    0.00%
   9519  2166  -1.30900e+13   138  -1.30900e+13  -1.30900e+13   295395    0.00%
  10419  2418  -1.30900e+13   219  -1.30900e+13  -1.30900e+13   344058    0.00%
  13192  2781        cutoff        -1.30900e+13  -1.30900e+13   447049    0.00%
Elapsed time = 6.53 sec. (4205.88 ticks, tree = 40.14 MB, solutions = 7)

Performing restart 1

Repeating presolve.
Tried aggregator 4 times.
MIP Presolve eliminated 1578 rows and 3641 columns.
MIP Presolve added 16 rows and 0 columns.
MIP Presolve modified 2119 coefficients.
Aggregator did 634 substitutions.
Reduced MIP has 1383 rows, 3397 columns, and 12046 nonzeros.
Reduced MIP has 3397 binaries, 0 generals, 0 SOSs, and 0 indicators.
Presolve time = 0.07 sec. (75.89 ticks)
Tried aggregator 1 time.
MIP Presolve eliminated 7 rows and 4 columns.
Reduced MIP has 1376 rows, 3392 columns, and 12027 nonzeros.
Reduced MIP has 3392 binaries, 0 generals, 0 SOSs, and 0 indicators.
Presolve time = 0.03 sec. (17.19 ticks)
Represolve time = 0.16 sec. (119.21 ticks)
  13731     0  -1.30900e+13   179  -1.30900e+13      Cuts: 23   572945    0.00%
  13731     0  -1.30900e+13   196  -1.30900e+13      Cuts: 15   572987    0.00%
  13731     0  -1.30900e+13   211  -1.30900e+13      Cuts: 38   573307    0.00%
  13731     0  -1.30900e+13   199  -1.30900e+13      Cuts: 54   573418    0.00%
  13731     0  -1.30900e+13   207  -1.30900e+13      Cuts: 42   573565    0.00%
  13731     0  -1.30900e+13   218  -1.30900e+13      Cuts: 34   573660    0.00%
  13731     0  -1.30900e+13   291  -1.30900e+13      Cuts: 21   573765    0.00%
  13731     0  -1.30900e+13   232  -1.30900e+13      Cuts: 41   573850    0.00%
  13731     0  -1.30900e+13   294  -1.30900e+13      Cuts: 17   573910    0.00%
  13731     0  -1.30900e+13   301  -1.30900e+13      Cuts: 27   573992    0.00%
  13731     0  -1.30900e+13   297  -1.30900e+13      Cuts: 24   574082    0.00%
  13731     0  -1.30900e+13   284  -1.30900e+13      Cuts: 24   574215    0.00%
  13731     0  -1.30900e+13   270  -1.30900e+13      Cuts: 24   574289    0.00%
  13731     0  -1.30900e+13   336  -1.30900e+13      Cuts: 30   574350    0.00%
  13731     0  -1.30900e+13   295  -1.30900e+13      Cuts: 26   574453    0.00%
  13731     0  -1.30900e+13   274  -1.30900e+13      Cuts: 19   574579    0.00%

Repeating presolve.
Tried aggregator 2 times.
MIP Presolve eliminated 909 rows and 2142 columns.
MIP Presolve modified 119 coefficients.
Aggregator did 50 substitutions.
Reduced MIP has 405 rows, 1189 columns, and 3844 nonzeros.
Reduced MIP has 1189 binaries, 0 generals, 0 SOSs, and 0 indicators.
Presolve time = 0.02 sec. (8.75 ticks)
Tried aggregator 2 times.
MIP Presolve eliminated 10 rows and 22 columns.
MIP Presolve modified 6 coefficients.
Aggregator did 5 substitutions.
Reduced MIP has 390 rows, 1162 columns, and 3745 nonzeros.
Reduced MIP has 1162 binaries, 0 generals, 0 SOSs, and 0 indicators.
Presolve time = 0.01 sec. (4.46 ticks)
Tried aggregator 1 time.
MIP Presolve eliminated 5 rows and 8 columns.
MIP Presolve modified 40 coefficients.
Reduced MIP has 381 rows, 1153 columns, and 3704 nonzeros.
Reduced MIP has 1153 binaries, 0 generals, 0 SOSs, and 0 indicators.
Presolve time = 0.00 sec. (3.77 ticks)
Represolve time = 0.08 sec. (48.64 ticks)
  13731     0  -1.30900e+13   260  -1.30900e+13      Cuts: 56   576032    0.00%
  13731     0  -1.30900e+13   277  -1.30900e+13      Cuts: 47   576145    0.00%
  13731     0  -1.30900e+13   254  -1.30900e+13      Cuts: 43   576231    0.00%

Repeating presolve.
Tried aggregator 2 times.
MIP Presolve eliminated 25 rows and 339 columns.
MIP Presolve added 4 rows and 0 columns.
MIP Presolve modified 88 coefficients.
Aggregator did 10 substitutions.
Reduced MIP has 350 rows, 801 columns, and 2615 nonzeros.
Reduced MIP has 801 binaries, 0 generals, 0 SOSs, and 0 indicators.
Presolve time = 0.00 sec. (3.19 ticks)
Tried aggregator 1 time.
Reduced MIP has 350 rows, 801 columns, and 2615 nonzeros.
Reduced MIP has 801 binaries, 0 generals, 0 SOSs, and 0 indicators.
Presolve time = 0.00 sec. (1.78 ticks)
Represolve time = 0.03 sec. (19.13 ticks)
  13731     0  -1.30900e+13   258  -1.30900e+13      Cuts: 50   577410    0.00%
  13731     0  -1.30900e+13   128  -1.30900e+13      Cuts: 44   577507    0.00%
  13731     0  -1.30900e+13   145  -1.30900e+13      Cuts: 17   577565    0.00%
  13731     0  -1.30900e+13   151  -1.30900e+13      Cuts: 19   577593    0.00%
  13731     0  -1.30900e+13   138  -1.30900e+13      Cuts: 23   577642    0.00%
  13731     0  -1.30900e+13   147  -1.30900e+13      Cuts: 19   577678    0.00%
  13731     0  -1.30900e+13   140  -1.30900e+13      Cuts: 21   577775    0.00%
  13731     0  -1.30900e+13   136  -1.30900e+13      Cuts: 16   577806    0.00%
  13731     0  -1.30900e+13   155  -1.30900e+13      Cuts: 13   577855    0.00%
  13731     0  -1.30900e+13   223  -1.30900e+13      Cuts: 20   577924    0.00%
  13731     0  -1.30900e+13   250  -1.30900e+13      Cuts: 23   577963    0.00%
  13731     0  -1.30900e+13   157  -1.30900e+13      Cuts: 11   578003    0.00%
  13731     0  -1.30900e+13   221  -1.30900e+13      Cuts: 12   578047    0.00%
  13731     0  -1.30900e+13   145  -1.30900e+13      Cuts: 15   578078    0.00%
  13731     0  -1.30900e+13   260  -1.30900e+13      Cuts: 25   578117    0.00%
  13731     0  -1.30900e+13   166  -1.30900e+13      Cuts: 12   578161    0.00%
  13731     0  -1.30900e+13   169  -1.30900e+13      Cuts: 23   578194    0.00%
  13731     0        cutoff        -1.30900e+13  -1.30900e+13   578194    0.00%

GUB cover cuts applied:  1
Clique cuts applied:  24
Cover cuts applied:  60
Mixed integer rounding cuts applied:  12
Zero-half cuts applied:  41
Gomory fractional cuts applied:  1

Root node processing (before b&c):
  Real time             =    1.29 sec. (1088.76 ticks)
Parallel b&c, 40 threads:
  Real time             =    7.43 sec. (5720.48 ticks)
  Sync time (average)   =    0.36 sec.
  Wait time (average)   =    0.00 sec.
                          ------------
Total (root+branch&cut) =    8.72 sec. (6809.23 ticks)

Solution pool: 7 solutions saved.

MIP - Integer optimal solution:  Objective = -1.3089999891e+13
Solution time =    8.86 sec.  Iterations = 578194  Nodes = 13731
Deterministic time = 6809.27 ticks  (768.89 ticks/sec)

CPLEX> Solution 'p8' written to file 'ee.sol'.
CPLEX> 